100
500
396
396
395
395
395
391
391
390
388
385
379
375
374
368
360
358
356
350
348
343
336
333
332
331
329
319
319
313
310
305
301
294
291
290
289
288
285
285
283
277
273
273
266
263
263
260
256
251
248
246
243
241
240
239
236
234
232
231
229
226
223
222
220
218
213
209
209
207
207
204
202
199
188
188
188
184
184
183
164
155
153
147
145
142
139
138
137
130
126
125
123
123
115
114
113
113
108
108
103
100
